n = 16;
lu = [|-71, -10
      |-43, -27
      |-46, 81
      |-124, 69
      |-251, -102
      |-184, -85
      |-97, 125
      |148, 234
      |-126, 202
      |86, 158
      |-242, -22
      |-105, 65
      |-141, -98
      |-124, 148
      |-78, -39
      |73, 230|];
